p wcnf 199 398 399 
1 -160 -177 0 
1 136 -110 0 
1 142 -162 0 
1 -108 -42 0 
1 38 -76 0 
1 73 -120 0 
1 -178 -30 0 
1 64 61 0 
1 -147 -150 0 
1 -144 -14 0 
1 -90 -51 0 
1 -32 -160 0 
1 80 -166 0 
1 160 181 0 
1 105 -188 0 
1 -14 -124 0 
1 -102 -151 0 
1 62 -186 0 
1 160 74 0 
1 110 89 0 
1 -122 -8 0 
1 150 -60 0 
1 -112 23 0 
1 194 75 0 
1 -179 -192 0 
1 -154 17 0 
1 117 16 0 
1 -76 9 0 
1 -71 -168 0 
1 -121 -95 0 
1 66 -171 0 
1 -176 -126 0 
1 43 53 0 
1 46 132 0 
1 -114 88 0 
1 29 109 0 
1 127 155 0 
1 -1 -195 0 
1 -172 -124 0 
1 55 -127 0 
1 -199 -107 0 
1 -49 114 0 
1 -28 153 0 
1 -156 -169 0 
1 -3 -19 0 
1 -43 27 0 
1 -28 62 0 
1 -176 -76 0 
1 -51 158 0 
1 -36 144 0 
1 -154 22 0 
1 -85 42 0 
1 65 -52 0 
1 -171 -110 0 
1 88 70 0 
1 118 -194 0 
1 -141 45 0 
1 6 90 0 
1 -26 187 0 
1 -55 106 0 
1 68 -25 0 
1 -9 -12 0 
1 196 -68 0 
1 139 -38 0 
1 -87 17 0 
1 16 19 0 
1 80 78 0 
1 -15 -178 0 
1 -45 -59 0 
1 -141 -35 0 
1 -29 -169 0 
1 -14 -80 0 
1 153 -94 0 
1 -117 162 0 
1 135 -11 0 
1 -80 145 0 
1 -9 -134 0 
1 51 -80 0 
1 -121 104 0 
1 -52 -184 0 
1 4 138 0 
1 25 -155 0 
1 81 -192 0 
1 193 -65 0 
1 102 -197 0 
1 148 -27 0 
1 126 -140 0 
1 84 -85 0 
1 24 -60 0 
1 48 154 0 
1 112 -17 0 
1 -13 78 0 
1 127 195 0 
1 111 163 0 
1 179 145 0 
1 -58 46 0 
1 16 -168 0 
1 -35 57 0 
1 -93 -174 0 
1 -24 -82 0 
1 -82 -69 0 
1 -94 38 0 
1 41 -163 0 
1 -85 68 0 
1 -135 63 0 
1 138 86 0 
1 77 -34 0 
1 186 -79 0 
1 -4 170 0 
1 -13 -193 0 
1 -166 -199 0 
1 -108 -189 0 
1 -3 -14 0 
1 -45 10 0 
1 -52 -47 0 
1 41 -168 0 
1 165 -119 0 
1 80 185 0 
1 -103 61 0 
1 -28 19 0 
1 -71 -73 0 
1 19 52 0 
1 123 -110 0 
1 -61 -138 0 
1 176 -132 0 
1 -70 170 0 
1 -103 34 0 
1 -59 132 0 
1 183 -76 0 
1 64 -86 0 
1 75 7 0 
1 -75 172 0 
1 95 -70 0 
1 -182 86 0 
1 -104 115 0 
1 -23 158 0 
1 120 -139 0 
1 -199 -128 0 
1 188 80 0 
1 89 42 0 
1 109 -121 0 
1 -12 17 0 
1 -57 41 0 
1 171 -108 0 
1 -144 101 0 
1 -153 35 0 
1 -28 -126 0 
1 55 -114 0 
1 7 96 0 
1 134 191 0 
1 145 18 0 
1 123 9 0 
1 -94 -146 0 
1 124 163 0 
1 84 175 0 
1 -27 138 0 
1 -95 -143 0 
1 -1 85 0 
1 6 167 0 
1 -52 -50 0 
1 43 15 0 
1 -162 -79 0 
1 -198 154 0 
1 -63 -110 0 
1 -19 -104 0 
1 -90 -185 0 
1 -115 -40 0 
1 38 -129 0 
1 58 -135 0 
1 104 97 0 
1 -104 -43 0 
1 195 181 0 
1 80 55 0 
1 59 -124 0 
1 113 6 0 
1 -164 175 0 
1 142 194 0 
1 172 100 0 
1 -107 32 0 
1 -172 -34 0 
1 59 -102 0 
1 19 62 0 
1 -3 -139 0 
1 -170 61 0 
1 -109 -178 0 
1 -130 169 0 
1 50 190 0 
1 -64 167 0 
1 -6 152 0 
1 -85 57 0 
1 -102 121 0 
1 -119 72 0 
1 -180 178 0 
1 -170 -128 0 
1 37 187 0 
1 106 42 0 
1 66 190 0 
1 -10 145 0 
1 180 -188 0 
1 29 -23 0 
1 -84 -95 0 
1 157 97 0 
1 179 -132 0 
1 -101 43 0 
1 -185 146 0 
1 129 157 0 
1 -93 -133 0 
1 112 -8 0 
1 -96 3 0 
1 104 129 0 
1 -175 -58 0 
1 31 -122 0 
1 -130 -12 0 
1 -83 163 0 
1 -178 84 0 
1 -101 22 0 
1 -98 -197 0 
1 -171 138 0 
1 107 -124 0 
1 -19 -186 0 
1 194 178 0 
1 -131 -158 0 
1 81 -151 0 
1 6 -185 0 
1 8 -128 0 
1 -76 46 0 
1 -135 -63 0 
1 -103 -173 0 
1 -199 21 0 
1 -183 -179 0 
1 22 8 0 
1 37 115 0 
1 -94 66 0 
1 -141 -76 0 
1 183 95 0 
1 -85 -134 0 
1 -72 -3 0 
1 43 -52 0 
1 162 16 0 
1 166 -199 0 
1 136 -100 0 
1 109 13 0 
1 78 113 0 
1 5 179 0 
1 -58 75 0 
1 39 -147 0 
1 64 3 0 
1 -144 -143 0 
1 67 -25 0 
1 152 45 0 
1 -114 101 0 
1 124 -27 0 
1 18 95 0 
1 118 -161 0 
1 -29 -84 0 
1 114 65 0 
1 -123 71 0 
1 -43 -82 0 
1 -168 101 0 
1 -32 183 0 
1 -191 73 0 
1 66 5 0 
1 -32 110 0 
1 -49 -73 0 
1 -190 78 0 
1 -42 146 0 
1 1 37 0 
1 -14 -105 0 
1 158 -33 0 
1 75 143 0 
1 24 -35 0 
1 156 98 0 
1 -188 147 0 
1 63 152 0 
1 124 -93 0 
1 -104 4 0 
1 -107 -104 0 
1 80 -75 0 
1 190 -199 0 
1 -147 -155 0 
1 -159 -143 0 
1 -177 -101 0 
1 33 127 0 
1 91 67 0 
1 -106 -22 0 
1 -78 -178 0 
1 -6 87 0 
1 -113 -95 0 
1 163 -149 0 
1 127 -70 0 
1 -34 -99 0 
1 -77 -15 0 
1 -69 176 0 
1 -135 194 0 
1 -99 -121 0 
1 -16 -46 0 
1 -59 -35 0 
1 -168 -23 0 
1 131 -175 0 
1 115 -30 0 
1 15 -47 0 
1 185 -49 0 
1 -111 16 0 
1 158 -175 0 
1 199 -156 0 
1 76 -127 0 
1 39 -103 0 
1 -103 16 0 
1 -32 156 0 
1 -65 -70 0 
1 -39 -46 0 
1 193 36 0 
1 69 111 0 
1 131 -89 0 
1 23 -90 0 
1 -6 -172 0 
1 -149 62 0 
1 -124 95 0 
1 -99 -181 0 
1 49 -9 0 
1 -2 -59 0 
1 -107 -185 0 
1 25 66 0 
1 43 125 0 
1 -63 68 0 
1 181 17 0 
1 -148 42 0 
1 -33 -120 0 
1 98 -34 0 
1 -47 62 0 
1 169 -58 0 
1 -171 -75 0 
1 196 85 0 
1 -100 -189 0 
1 77 189 0 
1 95 128 0 
1 85 -137 0 
1 122 13 0 
1 114 107 0 
1 -181 -110 0 
1 -168 178 0 
1 -68 -104 0 
1 60 176 0 
1 40 -17 0 
1 -176 36 0 
1 186 -81 0 
1 -133 -71 0 
1 88 144 0 
1 -173 -43 0 
1 -143 -7 0 
1 58 -138 0 
1 -177 185 0 
1 -21 103 0 
1 -77 93 0 
1 100 -162 0 
1 -73 -130 0 
1 43 97 0 
1 -41 -95 0 
1 77 129 0 
1 149 38 0 
1 44 -123 0 
1 118 -18 0 
1 132 63 0 
1 95 -135 0 
1 -24 35 0 
1 -48 97 0 
1 -90 198 0 
1 15 -32 0 
1 32 -109 0 
1 111 109 0 
1 69 116 0 
1 197 -180 0 
1 181 161 0 
1 130 98 0 
1 -11 -37 0 
1 -11 39 0 
1 185 -16 0 
1 60 85 0 
1 -156 -62 0 
1 97 -89 0 
1 -56 75 0 
1 -197 14 0 
1 -124 58 0 
1 -127 156 0 
1 -27 101 0 
1 -176 -113 0 
1 177 -150 0 
1 150 198 0 
1 45 160 0 
1 -110 27 0 
1 -11 -167 0 
1 158 -187 0 
1 65 -199 0 
1 -103 -32 0 
1 7 -16 0 
1 -74 -50 0 
1 -13 -72 0 
1 -192 57 0 
